p ds 109 173
1 2
1 11
1 35
2 3
2 32
3 4
3 29
4 5
4 26
5 6
5 20
6 7
6 15
7 8
7 23
8 9
8 18
9 10
9 14
10 14
11 12
11 32
11 66
12 13
12 33
12 68
13 55
13 59
14 18
15 16
15 20
15 23
16 17
16 21
16 24
17 22
17 25
18 19
18 23
19 24
20 21
20 26
21 22
21 27
22 28
23 24
24 25
26 27
26 29
27 28
27 30
28 75
29 30
29 32
30 31
30 33
31 34
31 75
32 33
33 34
35 43
35 66
36 42
36 94
36 109
36 90
37 39
37 40
37 107
37 77
38 88
38 98
39 47
39 82
40 100
40 108
40 76
41 42
41 100
41 109
41 68
42 43
42 66
43 90
44 89
44 45
44 53
44 103
45 92
45 46
45 94
46 84
46 93
47 106
48 50
48 81
49 91
49 80
50 83
51 52
51 64
52 56
52 58
53 95
53 102
54 88
54 102
55 56
55 57
56 57
57 58
57 61
58 85
59 73
59 75
60 61
60 62
60 63
61 85
61 72
62 71
63 72
63 79
64 69
65 73
65 74
65 78
66 68
67 86
67 87
68 76
69 87
70 71
70 79
72 73
73 74
74 75
76 77
77 82
78 79
80 92
80 81
80 83
83 84
84 92
85 86
86 87
88 97
89 91
89 104
90 93
91 92
91 105
93 94
94 95
95 96
95 109
96 97
96 101
96 102
97 98
97 108
98 99
98 107
99 106
100 101
101 108
101 109
102 103
103 104
104 105
106 107
107 108
